n = 10; 

m=12; 


11	49	2	76	17	32	39	9	83	69
51	24	21	57	69	51	50	51	21	19
56	65	59	4	10	12	62	43	49	54
68	37	22	41	92	67	24	87	91	31
88	51	41	71	94	99	11	97	44	77
22	7	36	29	22	13	34	45	19	13
50	39	14	57	49	12	35	43	12	42
4	27	14	13	35	20	17	44	18	9
46	46	29	4	46	38	19	5	7	36
18	13	20	3	41	40	44	12	14	44
12	21	34	9	7	8	44	20	29	24
88	51	41	71	94	99	11	97	44	77
